(declare-fun Constructed_Argument_t () String)
(declare-fun Constructed_Argument_Array_Length () Int)
(declare-fun Constructed_Argument_2_t () String)
(declare-fun CreateAsClass () Bool)
(assert (= Constructed_Argument_t (str.++ (seq.unit #x61) (seq.unit #x72) (seq.unit #x72) (seq.unit #x61) (seq.unit #x79) (seq.unit #x5f) (seq.unit #x73) (seq.unit #x74) (seq.unit #x72) (seq.unit #x69) (seq.unit #x6e) (seq.unit #x67))))
(assert (>= Constructed_Argument_Array_Length 0))
(assert (= Constructed_Argument_2_t (str.++ (seq.unit #x62) (seq.unit #x6f) (seq.unit #x6f) (seq.unit #x6c) (seq.unit #x65) (seq.unit #x61) (seq.unit #x6e))))
(assert CreateAsClass)
(check-sat)
